
Gurobi 6.5.2 (linux64) logging started Sun Sep 18 18:52:14 2016


Gurobi 6.5.2 (linux64) logging started Sun Sep 18 18:52:14 2016

Optimize a model with 201 rows, 3565 columns and 8181 nonzeros
Coefficient statistics:
  Matrix range    [1e+00, 2e+00]
  Objective range [1e+00, 1e+02]
  Bounds range    [1e+00, 1e+00]
  RHS range       [1e+00, 1e+00]
Presolve removed 41 rows and 1 columns
Presolve time: 0.01s
Presolved: 160 rows, 3564 columns, 7714 nonzeros
Variable types: 0 continuous, 3564 integer (3564 binary)

Root relaxation: objective 9.340000e+02, 142 iterations, 0.00 seconds

    Nodes    |    Current Node    |     Objective Bounds      |     Work
 Expl Unexpl |  Obj  Depth IntInf | Incumbent    BestBd   Gap | It/Node Time

     0     0  934.00000    0   12          -  934.00000      -     -    0s
     0     0  939.50000    0    2          -  939.50000      -     -    0s
     0     0  943.50000    0    2          -  943.50000      -     -    0s
     0     0  944.50000    0    4          -  944.50000      -     -    0s
     0     0  945.00000    0   10          -  945.00000      -     -    0s
     0     0  945.00000    0   10          -  945.00000      -     -    0s
     0     2  946.28571    0   23          -  946.28571      -     -    0s
*  180   111              15     961.0000000  952.00000  0.94%   3.5    0s
H  631    35                     956.0000000  953.00000  0.31%   3.0    0s

Cutting planes:
  Cover: 22
  Zero half: 2
  Lazy constraints: 41

Explored 783 nodes (2508 simplex iterations) in 0.49 seconds
Thread count was 8 (of 8 available processors)

Optimal solution found (tolerance 1.00e-04)
Best objective 9.560000000000e+02, best bound 9.560000000000e+02, gap 0.0%
